Route #1: 1 40 31 24 37 2 11 18 45 1
Route #2: 1 10 15 28 25 4 39 32 1
Route #3: 1 6 42 23 44 9 22 5 17 12 26 1
Route #4: 1 29 14 3 16 33 38 8 35 19 1
Route #5: 1 43 41 7 13 30 20 34 27 21 36 1
cost 896.3880966931713
